c SAT Generator for power-law distributed variable frequencies
c -g u -v 20 -c 91 -k 3 -p 2.750000 -b 3.200000 -f /home/schmidt/Devel/ni-kop-sat/data/ensemble/ruf20-91/ruf20-91-23 -u 1 -U 1 -s 3421890169
p cnf 20 91
-12 -16 -20 0
11 12 17 0
2 3 12 0
-8 18 20 0
-8 -15 -20 0
11 13 15 0
5 -10 13 0
-10 17 -20 0
2 9 -19 0
6 -19 -20 0
-7 10 18 0
3 9 17 0
6 10 -19 0
3 -13 -14 0
-2 -6 16 0
3 9 -10 0
-5 -10 20 0
-3 -6 -14 0
5 10 16 0
8 -10 -18 0
6 7 10 0
1 -2 -6 0
6 -7 17 0
6 14 17 0
2 6 -14 0
-10 -15 20 0
4 6 15 0
5 8 9 0
2 -6 -18 0
-1 -3 19 0
-1 11 -15 0
1 -4 -18 0
9 -15 17 0
-8 10 -18 0
2 7 16 0
-4 -6 -18 0
4 7 -12 0
1 10 -18 0
1 14 17 0
3 7 19 0
1 3 -13 0
6 8 10 0
3 -4 -5 0
-3 -6 15 0
-9 -13 -14 0
-2 -9 -17 0
-8 11 -12 0
6 -15 -18 0
12 -15 -18 0
8 11 -15 0
1 -7 -8 0
-1 5 -12 0
2 4 7 0
10 -14 -15 0
-8 15 20 0
13 15 16 0
14 -15 19 0
-7 -15 20 0
-12 -16 -17 0
3 -8 -10 0
-3 -9 -11 0
1 -11 19 0
-3 -6 -13 0
-4 -7 11 0
-5 -12 15 0
2 14 19 0
-4 5 12 0
4 -13 16 0
-12 -17 -20 0
-2 -8 -17 0
-3 -4 -18 0
13 17 -19 0
-4 11 18 0
-9 13 18 0
-8 -18 19 0
-5 11 -20 0
2 11 15 0
-2 11 13 0
-5 -16 -19 0
-2 -5 -13 0
5 -7 20 0
-6 -9 12 0
2 -5 13 0
-10 15 17 0
-9 -10 -16 0
5 9 -15 0
-9 11 -17 0
6 13 19 0
-17 19 -20 0
-5 15 16 0
4 6 -18 0
